\ LP format - for model browsing. Use MPS format to capture full model detail.
Maximize
  7 x_1 + 3 x_2 + 7 x_3 + 4 x_4 + 9 x_5
Subject To
 C_1: 8 x_1 + 5 x_2 + 5 x_4 <= 9
 C_2: x_5 <= 0
 C_3: 4 x_1 + 6 x_2 + 6 x_4 <= 8
 C_4: x_2 + 5 x_4 <= 3
 C_5: 4 x_1 + 4 x_5 <= 4
 C_6: 3 x_2 + 2 x_3 <= 2
 C_7: 7 x_4 + 6 x_5 <= 6
 C_8: 8 x_1 + 4 x_2 + 5 x_3 + 10 x_5 <= 13
 C_9: 9 x_1 + 3 x_2 + 2 x_3 + 2 x_4 + x_5 <= 8
 C_10: 4 x_2 + 2 x_3 + 8 x_4 <= 7
Bounds
Binaries
 x_1 x_2 x_3 x_4 x_5
End
